Problem:    DISTRIB
Rows:       3
Columns:    1 (1 integer, 1 binary)
Non-zeros:  3
Status:     INTEGER OPTIMAL
Objective:  COST = 1 (MINimum)

   No.   Row name        Activity     Lower bound   Upper bound
------ ------------    ------------- ------------- -------------
     1 COST                        1                             
     2 RXN0                        1             1               
     3 RXN1                        1             1               

   No. Column name       Activity     Lower bound   Upper bound
------ ------------    ------------- ------------- -------------
     1 X0           *              1             0             1 

Integer feasibility conditions:

KKT.PE: max.abs.err = 0.00e+00 on row 0
        max.rel.err = 0.00e+00 on row 0
        High quality

KKT.PB: max.abs.err = 0.00e+00 on row 0
        max.rel.err = 0.00e+00 on row 0
        High quality

End of output
